C N Fe H O
1.00000
    10.683688   -6.168230    0.000000
     0.000000   12.336460    0.000000
     0.000000    0.000000   33.901540
C    N    Fe   H    O
94   4   1  64  32
Selective dynamics
Direct
      0.16000000       0.08000000       0.00000000   T T T
      0.16000000       0.08000000       0.10227235   T T T
      0.02666682       0.01333341       0.00000000   T T T
      0.09333294       0.14666679       0.10227235   T T T
      0.36000023       0.07999979       0.00000000   T T T
      0.36000023       0.07999979       0.10227235   T T T
      0.22666705       0.01333320       0.00000000   T T T
      0.29333317       0.14666659       0.10227235   T T T
      0.55999952       0.07999992       0.00000000   T T T
      0.55999952       0.07999992       0.10227235   T T T
      0.42666634       0.01333333       0.00000000   T T T
      0.49333340       0.14666638       0.10227235   T T T
      0.75999975       0.07999971       0.00000000   T T T
      0.75999975       0.07999971       0.10227235   T T T
      0.62666657       0.01333312       0.00000000   T T T
      0.69333269       0.14666651       0.10227235   T T T
      0.95999998       0.08000031       0.00000000   T T T
      0.95999998       0.08000031       0.10227235   T T T
      0.82666680       0.01333373       0.00000000   T T T
      0.89333292       0.14666630       0.10227235   T T T
      0.16000000       0.27999984       0.00000000   T T T
      0.16000000       0.27999984       0.10227235   T T T
      0.02666682       0.21333325       0.00000000   T T T
      0.09333294       0.34666663       0.10227235   T T T
      0.36000023       0.28000044       0.00000000   T T T
      0.36000023       0.28000044       0.10227235   T T T
      0.22666705       0.21333385       0.00000000   T T T
      0.29333317       0.34666642       0.10227235   T T T
      0.55999952       0.27999976       0.00000000   T T T
      0.55999952       0.27999976       0.10227235   T T T
      0.42666634       0.21333317       0.00000000   T T T
      0.75999975       0.27999955       0.00000000   T T T
      0.75999975       0.27999955       0.10227235   T T T
      0.62666657       0.21333296       0.00000000   T T T
      0.69333269       0.34666635       0.10227235   T T T
      0.95999998       0.28000015       0.00000000   T T T
      0.95999998       0.28000015       0.10227235   T T T
      0.82666680       0.21333356       0.00000000   T T T
      0.89333292       0.34666614       0.10227235   T T T
      0.16000000       0.47999967       0.00000000   T T T
      0.16000000       0.47999967       0.10227235   T T T
      0.02666682       0.41333309       0.00000000   T T T
      0.09333294       0.54666647       0.10227235   T T T
      0.36000023       0.48000027       0.00000000   T T T
      0.22666705       0.41333369       0.00000000   T T T
      0.29333317       0.54666626       0.10227235   T T T
      0.55999952       0.47999960       0.00000000   T T T
      0.42666634       0.41333301       0.00000000   T T T
      0.75999975       0.48000020       0.00000000   T T T
      0.75999975       0.48000020       0.10227235   T T T
      0.62666657       0.41333361       0.00000000   T T T
      0.95999998       0.47999999       0.00000000   T T T
      0.95999998       0.47999999       0.10227235   T T T
      0.82666680       0.41333340       0.00000000   T T T
      0.89333292       0.54666679       0.10227235   T T T
      0.16000000       0.67999951       0.00000000   T T T
      0.16000000       0.67999951       0.10227235   T T T
      0.02666682       0.61333292       0.00000000   T T T
      0.09333294       0.74666631       0.10227235   T T T
      0.36000023       0.68000011       0.00000000   T T T
      0.36000023       0.68000011       0.10227235   T T T
      0.22666705       0.61333353       0.00000000   T T T
      0.29333317       0.74666610       0.10227235   T T T
      0.55999952       0.67999944       0.00000000   T T T
      0.42666634       0.61333285       0.00000000   T T T
      0.49333340       0.74666670       0.10227235   T T T
      0.75999975       0.68000004       0.00000000   T T T
      0.75999975       0.68000004       0.10227235   T T T
      0.62666657       0.61333345       0.00000000   T T T
      0.69333269       0.74666602       0.10227235   T T T
      0.95999998       0.67999983       0.00000000   T T T
      0.95999998       0.67999983       0.10227235   T T T
      0.82666680       0.61333324       0.00000000   T T T
      0.89333292       0.74666662       0.10227235   T T T
      0.16000000       0.88000016       0.00000000   T T T
      0.16000000       0.88000016       0.10227235   T T T
      0.02666682       0.81333357       0.00000000   T T T
      0.09333294       0.94666615       0.10227235   T T T
      0.36000023       0.87999995       0.00000000   T T T
      0.36000023       0.87999995       0.10227235   T T T
      0.22666705       0.81333336       0.00000000   T T T
      0.29333317       0.94666675       0.10227235   T T T
      0.55999952       0.87999927       0.00000000   T T T
      0.55999952       0.87999927       0.10227235   T T T
      0.42666634       0.81333269       0.00000000   T T T
      0.49333340       0.94666654       0.10227235   T T T
      0.75999975       0.87999987       0.00000000   T T T
      0.75999975       0.87999987       0.10227235   T T T
      0.62666657       0.81333329       0.00000000   T T T
      0.69333269       0.94666586       0.10227235   T T T
      0.95999998       0.87999966       0.00000000   T T T
      0.95999998       0.87999966       0.10227235   T T T
      0.82666680       0.81333308       0.00000000   T T T
      0.89333292       0.94666646       0.10227235   T T T
      0.49333340       0.34666702       0.10227235   T T T
      0.36000023       0.48000027       0.10227235   T T T
      0.69333269       0.54666618       0.10227235   T T T
      0.55999952       0.67999944       0.10227235   T T T
      0.52665804       0.51331483       0.13444375   T T T
      0.82588992       0.21081971       0.30810429   T T T
      0.91124996       0.15204032       0.30140666   T T T
      0.89640022       0.40025037       0.25764552   T T T
      0.75508010       0.33908007       0.25869592   T T T
      0.09700021       0.25253027       0.30701850   T T T
      0.06612043       0.11187050       0.29489929   T T T
      0.46892048       0.89187006       0.31920143   T T T
      0.37483967       0.78287996       0.29218496   T T T
      0.14726001       0.38138037       0.35986743   T T T
      0.26099041       0.42511051       0.33290730   T T T
      0.13017977       0.85950011       0.21152962   T T T
      0.16805995       0.00565984       0.21086682   T T T
      0.26307021       0.65484001       0.24179639   T T T
      0.26064034       0.77440040       0.25467014   T T T
      0.47107985       0.76718028       0.18376569   T T T
      0.50006984       0.81910011       0.22670888   T T T
      0.80890983       0.74042001       0.23667804   T T T
      0.81392963       0.67308978       0.27166848   T T T
      0.69333550       0.58228478       0.23738184   T T T
      0.70102479       0.50082456       0.20705844   T T T
      0.05827014       0.64291974       0.21237560   T T T
      0.95334029       0.67744006       0.21496310   T T T
      0.71181040       0.02228032       0.28280102   T T T
      0.60571033       0.88242985       0.27816170   T T T
      0.48001964       0.13911945       0.27023020   T T T
      0.57185030       0.16056017       0.23714321   T T T
      0.79901998       0.93778029       0.24003393   T T T
      0.79843966       0.89544970       0.19681554   T T T
      0.10491040       0.89861042       0.31100918   T T T
      0.16593989       0.94229021       0.26855919   T T T
      0.81854040       0.08197047       0.35741415   T T T
      0.81718038       0.07010006       0.40604675   T T T
      0.63871017       0.22977023       0.39009909   T T T
      0.66047044       0.21316031       0.34709249   T T T
      0.73407986       0.15170020       0.44614876   T T T
      0.74749002       0.12881008       0.49034705   T T T
      0.63694018       0.67922026       0.45025919   T T T
      0.58665979       0.71258955       0.41342134   T T T
      0.34331030       0.39840982       0.43160429   T T T
      0.47991013       0.52498983       0.42435653   T T T
      0.07288963       0.67074995       0.35014516   T T T
      0.21164040       0.70954039       0.33982350   T T T
      0.26168024       0.83752016       0.47283427   T T T
      0.35763962       0.84309951       0.50429243   T T T
      0.46217000       0.07995980       0.34356728   T T T
      0.33133035       0.98297987       0.32269154   T T T
      0.48731020       0.49013018       0.31791122   T T T
      0.45188048       0.45578008       0.36312480   T T T
      0.33658977       0.25270970       0.49203930   T T T
      0.23485992       0.12773032       0.47477312   T T T
      0.54118017       0.37885048       0.41556490   T T T
      0.67741965       0.44822990       0.40863424   T T T
      0.68177957       0.86752952       0.37746515   T T T
      0.56806977       0.80501983       0.34704294   T T T
      0.20053001       0.91640999       0.51627802   T T T
      0.05922019       0.88356009       0.50139492   T T T
      0.89107995       0.65278014       0.35615904   T T T
      0.87668979       0.56444995       0.31922975   T T T
      0.23096987       0.93989972       0.42704255   T T T
      0.21066977       0.82749991       0.39980042   T T T
      0.28843318       0.47388815       0.12341062   T T T
      0.76476496       0.55240370       0.12339646   T T T
      0.64424665       0.66770625       0.19732319   T T T
      0.40943259       0.35929387       0.19742554   T T T
      0.82660035       0.13299042       0.31411110   T T T
      0.82909012       0.37037031       0.27601136   T T T
      0.05094964       0.18127964       0.28725657   T T T
      0.44672964       0.80613978       0.31170000   T T T
      0.17042992       0.39738960       0.33184982   T T T
      0.19476983       0.94526024       0.21973604   T T T
      0.24414978       0.69194988       0.26465346   T T T
      0.43628007       0.74848991       0.21082464   T T T
      0.81670957       0.66631939       0.24281876   T T T
      0.65390530       0.54160418       0.21274815   T T T
      0.02803994       0.69395003       0.20017852   T T T
      0.67564966       0.94803959       0.26360307   T T T
      0.53357980       0.20071017       0.25092665   T T T
      0.82635043       0.89445996       0.22324709   T T T
      0.17168978       0.96261019       0.29785314   T T T
      0.83767049       0.04150010       0.38177263   T T T
      0.61491033       0.15931056       0.36973099   T T T
      0.78089983       0.12703967       0.46394382   T T T
      0.56060043       0.65252045       0.43594716   T T T
      0.42311982       0.43333017       0.41732735   T T T
      0.16174003       0.73485990       0.35486176   T T T
      0.26784010       0.80740985       0.49956875   T T T
      0.42374039       0.02513997       0.32093586   T T T
      0.42292981       0.46653970       0.33714457   T T T
      0.26615997       0.21620999       0.47554152   T T T
      0.60293039       0.36464053       0.40470728   T T T
      0.61185989       0.79189999       0.36829271   T T T
      0.13465014       0.94049047       0.51521347   T T T
      0.90936016       0.65274014       0.32771815   T T T
      0.25213017       0.87593985       0.42441995   T T T
      0.56307898       0.65268810       0.17912549   T T T
      0.49022960       0.37388756       0.17909717   T T T
